\Problem name: IloCplex

Minimize
 obj: id10109
Subject To
 id10111: x0.0 + x0.1 + x0.2 + x0.3 + x0.4 + x0.5 + x0.6 + x0.7 + x0.8 + x0.9
          + x0.10 + x0.11 + x0.12 + x0.13 + x0.14 + x0.15 + x0.16 + x0.17  = 1
 id10113: x1.0 + x1.1 + x1.2 + x1.3 + x1.4 + x1.5 + x1.6 + x1.7 + x1.8 + x1.9
          + x1.10 + x1.11 + x1.12 + x1.13 + x1.14 + x1.15 + x1.16 + x1.17  = 1
 id10115: x2.0 + x2.1 + x2.2 + x2.3 + x2.4 + x2.5 + x2.6 + x2.7 + x2.8 + x2.9
          + x2.10 + x2.11 + x2.12 + x2.13 + x2.14 + x2.15 + x2.16 + x2.17  = 1
 id10117: x3.0 + x3.1 + x3.2 + x3.3 + x3.4 + x3.5 + x3.6 + x3.7 + x3.8 + x3.9
          + x3.10 + x3.11 + x3.12 + x3.13 + x3.14 + x3.15 + x3.16 + x3.17  = 1
 id10119: x4.0 + x4.1 + x4.2 + x4.3 + x4.4 + x4.5 + x4.6 + x4.7 + x4.8 + x4.9
          + x4.10 + x4.11 + x4.12 + x4.13 + x4.14 + x4.15 + x4.16 + x4.17  = 1
Bounds
      id10109 = 0
 0 <= x0.0 <= 1
 0 <= x0.1 <= 1
 0 <= x0.2 <= 1
 0 <= x0.3 <= 1
 0 <= x0.4 <= 1
 0 <= x0.5 <= 1
 0 <= x0.6 <= 1
 0 <= x0.7 <= 1
 0 <= x0.8 <= 1
 0 <= x0.9 <= 1
 0 <= x0.10 <= 1
 0 <= x0.11 <= 1
 0 <= x0.12 <= 1
 0 <= x0.13 <= 1
 0 <= x0.14 <= 1
 0 <= x0.15 <= 1
 0 <= x0.16 <= 1
 0 <= x0.17 <= 1
 0 <= x1.0 <= 1
 0 <= x1.1 <= 1
 0 <= x1.2 <= 1
 0 <= x1.3 <= 1
 0 <= x1.4 <= 1
 0 <= x1.5 <= 1
 0 <= x1.6 <= 1
 0 <= x1.7 <= 1
 0 <= x1.8 <= 1
 0 <= x1.9 <= 1
 0 <= x1.10 <= 1
 0 <= x1.11 <= 1
 0 <= x1.12 <= 1
 0 <= x1.13 <= 1
 0 <= x1.14 <= 1
 0 <= x1.15 <= 1
 0 <= x1.16 <= 1
 0 <= x1.17 <= 1
 0 <= x2.0 <= 1
 0 <= x2.1 <= 1
 0 <= x2.2 <= 1
 0 <= x2.3 <= 1
 0 <= x2.4 <= 1
 0 <= x2.5 <= 1
 0 <= x2.6 <= 1
 0 <= x2.7 <= 1
 0 <= x2.8 <= 1
 0 <= x2.9 <= 1
 0 <= x2.10 <= 1
 0 <= x2.11 <= 1
 0 <= x2.12 <= 1
 0 <= x2.13 <= 1
 0 <= x2.14 <= 1
 0 <= x2.15 <= 1
 0 <= x2.16 <= 1
 0 <= x2.17 <= 1
 0 <= x3.0 <= 1
 0 <= x3.1 <= 1
 0 <= x3.2 <= 1
 0 <= x3.3 <= 1
 0 <= x3.4 <= 1
 0 <= x3.5 <= 1
 0 <= x3.6 <= 1
 0 <= x3.7 <= 1
 0 <= x3.8 <= 1
 0 <= x3.9 <= 1
 0 <= x3.10 <= 1
 0 <= x3.11 <= 1
 0 <= x3.12 <= 1
 0 <= x3.13 <= 1
 0 <= x3.14 <= 1
 0 <= x3.15 <= 1
 0 <= x3.16 <= 1
 0 <= x3.17 <= 1
 0 <= x4.0 <= 1
 0 <= x4.1 <= 1
 0 <= x4.2 <= 1
 0 <= x4.3 <= 1
 0 <= x4.4 <= 1
 0 <= x4.5 <= 1
 0 <= x4.6 <= 1
 0 <= x4.7 <= 1
 0 <= x4.8 <= 1
 0 <= x4.9 <= 1
 0 <= x4.10 <= 1
 0 <= x4.11 <= 1
 0 <= x4.12 <= 1
 0 <= x4.13 <= 1
 0 <= x4.14 <= 1
 0 <= x4.15 <= 1
 0 <= x4.16 <= 1
 0 <= x4.17 <= 1
Generals
 x0.0  x0.1  x0.2  x0.3  x0.4  x0.5  x0.6  x0.7  x0.8  x0.9  x0.10  x0.11 
 x0.12  x0.13  x0.14  x0.15  x0.16  x0.17  x1.0  x1.1  x1.2  x1.3  x1.4  x1.5 
 x1.6  x1.7  x1.8  x1.9  x1.10  x1.11  x1.12  x1.13  x1.14  x1.15  x1.16 
 x1.17  x2.0  x2.1  x2.2  x2.3  x2.4  x2.5  x2.6  x2.7  x2.8  x2.9  x2.10 
 x2.11  x2.12  x2.13  x2.14  x2.15  x2.16  x2.17  x3.0  x3.1  x3.2  x3.3  x3.4 
 x3.5  x3.6  x3.7  x3.8  x3.9  x3.10  x3.11  x3.12  x3.13  x3.14  x3.15  x3.16 
 x3.17  x4.0  x4.1  x4.2  x4.3  x4.4  x4.5  x4.6  x4.7  x4.8  x4.9  x4.10 
 x4.11  x4.12  x4.13  x4.14  x4.15  x4.16  x4.17 
End
